29 28
0 20 65
0 27 45
1 19 67
1 20 42
2 28 77
3 14 38
4 8 46
4 25 57
5 11 55
5 27 60
6 24 95
7 23 57
7 26 43
8 11 89
9 12 57
9 19 28
10 18 95
10 21 103
12 23 74
13 16 59
13 21 44
14 17 56
15 18 66
15 22 118
16 17 66
18 24 69
22 26 80
25 28 39